Version identifier: 22.1.0.0 | 2022-03-09 | 1a383f8ce
CPXPARAM_Read_DataCheck                          1
Tried aggregator 3 times.
MIP Presolve eliminated 14870 rows and 2281 columns.
MIP Presolve modified 291 coefficients.
Aggregator did 12943 substitutions.
Reduced MIP has 2497 rows, 13576 columns, and 29632 nonzeros.
Reduced MIP has 13556 binaries, 20 generals, 0 SOSs, and 0 indicators.
Presolve time = 0.11 sec. (114.28 ticks)
Tried aggregator 1 time.
Detecting symmetries...
Reduced MIP has 2497 rows, 13576 columns, and 29632 nonzeros.
Reduced MIP has 13556 binaries, 20 generals, 0 SOSs, and 0 indicators.
Presolve time = 0.02 sec. (21.11 ticks)
Probing fixed 31 vars, tightened 0 bounds.
Probing changed sense of 6 constraints.
Probing time = 0.04 sec. (4.80 ticks)
Clique table members: 27779.
MIP emphasis: balance optimality and feasibility.
MIP search method: dynamic search.
Parallel mode: deterministic, using up to 8 threads.
Root relaxation solution time = 0.19 sec. (92.74 ticks)

        Nodes                                         Cuts/
   Node  Left     Objective  IInf  Best Integer    Best Bound    ItCnt     Gap

      0     0       20.3747  1731                     20.3747     2207         
      0     0       31.0000   533                    Cuts: 42     3811         
      0     0       31.0000   586                    Cuts: 42     5828         
      0     0       31.0000   522                 ZeroHalf: 2     6127         
      0     0       31.0000   682                ZeroHalf: 42     8409         
*     0+    0                           37.0000       31.0000            16.22%
*     0+    0                           36.0000       31.0000            13.89%
*     0+    0                           34.0000       31.0000             8.82%
*     0+    0                           33.0000       31.0000             6.06%
      0     2       31.0000   539       33.0000       31.0000     8409    6.06%
Elapsed time = 14.70 sec. (10193.31 ticks, tree = 0.02 MB, solutions = 4)
      1     3       31.0000   460       33.0000       31.0000    11538    6.06%
      2     4       31.0000   614       33.0000       31.0000    13230    6.06%
      3     5       31.0000   467       33.0000       31.0000    14612    6.06%
      5     5       31.0000   488       33.0000       31.0000    15141    6.06%
     11    10       31.0000   567       33.0000       31.0000    28698    6.06%
     19    13       31.0000   721       33.0000       31.0000    36547    6.06%
     25    15       31.0000   603       33.0000       31.0000    36890    6.06%
     38    20       31.3958   619       33.0000       31.0000    47553    6.06%
     60    21    infeasible             33.0000       31.0000    49118    6.06%
    127    80       31.1667   556       33.0000       31.0000   107289    6.06%
Elapsed time = 21.93 sec. (14494.75 ticks, tree = 0.65 MB, solutions = 4)
    205   121       31.3333   514       33.0000       31.0000   200527    6.06%
*   255   130      integral     0       32.0000       31.0000   216371    3.12%
    401    92    infeasible             32.0000       31.0000   253439    3.12%
    764   212       31.0000   379       32.0000       31.0000   386971    3.12%
   1080   288       31.0000   591       32.0000       31.0000   407126    3.12%
   1470   407       31.0000   385       32.0000       31.0000   495198    3.12%
   1658   443    infeasible             32.0000       31.0000   567544    3.12%
   1809   233        cutoff             32.0000       31.0000   661948    3.12%
   1884   174        cutoff             32.0000       31.0000   695869    3.12%
   1938    45        cutoff             32.0000       31.0000   811527    3.12%

Clique cuts applied:  1
Mixed integer rounding cuts applied:  1
Zero-half cuts applied:  75
Lift and project cuts applied:  1
Gomory fractional cuts applied:  12

Root node processing (before b&c):
  Real time             =   14.67 sec. (10180.20 ticks)
Parallel b&c, 8 threads:
  Real time             =   27.83 sec. (13661.94 ticks)
  Sync time (average)   =    5.35 sec.
  Wait time (average)   =    0.00 sec.
                          ------------
Total (root+branch&cut) =   42.49 sec. (23842.14 ticks)
